(declare-fun |0| () Int)
(declare-fun |1| () Int)
(declare-fun |2| () Int)
(assert (<= (- 2147483648) |2|))
(assert (<= |2| 2147483647))
(declare-fun |3| () Int)
(declare-fun |4| () Int)
(declare-fun |5| () Int)
(assert (distinct |5| |1|))
(push 1)
(assert (>= |3| 5))
(push 1)
(assert (< |3| 0))
(pop 1)
(assert (not (< |3| 0)))
(pop 1)
(assert (not (>= |3| 5)))
